Route #1: 28 136 171 63 173 94 162 99 70 46 187 60 30 108 133 16 61 72 62 122 24 92 49 160 117 82 17 7 170 165 58 66 
Route #2: 67 132 10 153 59 86 93 118 182 45 77 33 13 12 73 32 50 96 139 103 141 74 100 81 130 112 120 125 109 149 152 95 129 52 105 
Route #3: 104 64 198 164 137 174 26 140 115 18 57 131 113 169 192 84 27 53 56 185 180 37 123 121 124 55 85 88 135 1 111 157 34 176 114 68 
Route #4: 144 42 6 110 184 148 29 2 138 143 128 126 90 25 48 145 193 20 71 127 5 194 190 80 158 101 91 161 44 197 106 159 83 14 36 
Route #5: 178 167 40 39 119 38 166 102 98 76 8 78 22 134 177 191 150 43 151 97 31 69 181 172 75 163 87 168 154 21 51 
Route #6: 188 196 142 107 200 41 35 116 15 183 65 3 199 189 47 175 155 179 89 9 19 186 146 54 147 195 156 79 4 23 11 
Cost 1842.2
